\ENCODING=ISO-8859-1
\Problem name: IloCplex

Minimize
 obj: T
Subject To
 c1:  T >= 0
 c2:  T - 20.4981279829953 y_1_0 - 29.1047199060826 y_8_0
      - 24.1874046764675 y_10_0 - 17.8337384790781 y_11_0
      - 22.7337029895395 y_12_0 - 29.2493629594416 y_14_0
      - 23.2751642423496 y_15_0 - 29.4721723557363 y_16_0
      - 28.0019078851291 y_18_0 >= 0
 c3:  z_2  = 1
 c4:  z_3  = 1
 c5:  z_4  = 1
 c6:  z_5  = 1
 c7:  z_6  = 1
 c8:  z_7  = 1
 c9:  z_9  = 1
 c10: z_13  = 1
 c11: z_17  = 1
 c12: z_19  = 1
 c13: z_20  = 1
 c14: x_1_0 + x_1_2 + x_1_3 + x_1_4 + x_1_5 + x_1_6 + x_1_7 + x_1_8 + x_1_9
      + x_1_10 + x_1_11 + x_1_12 + x_1_13 + x_1_14 + x_1_15 + x_1_16 + x_1_17
      + x_1_18 + x_1_19 + x_1_20 - z_1  = 0
 c15: - z_2 + x_2_0 + x_2_1 + x_2_3 + x_2_4 + x_2_5 + x_2_6 + x_2_7 + x_2_8
      + x_2_9 + x_2_10 + x_2_11 + x_2_12 + x_2_13 + x_2_14 + x_2_15 + x_2_16
      + x_2_17 + x_2_18 + x_2_19 + x_2_20  = 0
 c16: - z_3 + x_3_0 + x_3_1 + x_3_2 + x_3_4 + x_3_5 + x_3_6 + x_3_7 + x_3_8
      + x_3_9 + x_3_10 + x_3_11 + x_3_12 + x_3_13 + x_3_14 + x_3_15 + x_3_16
      + x_3_17 + x_3_18 + x_3_19 + x_3_20  = 0
 c17: - z_4 + x_4_0 + x_4_1 + x_4_2 + x_4_3 + x_4_5 + x_4_6 + x_4_7 + x_4_8
      + x_4_9 + x_4_10 + x_4_11 + x_4_12 + x_4_13 + x_4_14 + x_4_15 + x_4_16
      + x_4_17 + x_4_18 + x_4_19 + x_4_20  = 0
 c18: - z_5 + x_5_0 + x_5_1 + x_5_2 + x_5_3 + x_5_4 + x_5_6 + x_5_7 + x_5_8
      + x_5_9 + x_5_10 + x_5_11 + x_5_12 + x_5_13 + x_5_14 + x_5_15 + x_5_16
      + x_5_17 + x_5_18 + x_5_19 + x_5_20  = 0
 c19: - z_6 + x_6_0 + x_6_1 + x_6_2 + x_6_3 + x_6_4 + x_6_5 + x_6_7 + x_6_8
      + x_6_9 + x_6_10 + x_6_11 + x_6_12 + x_6_13 + x_6_14 + x_6_15 + x_6_16
      + x_6_17 + x_6_18 + x_6_19 + x_6_20  = 0
 c20: - z_7 + x_7_0 + x_7_1 + x_7_2 + x_7_3 + x_7_4 + x_7_5 + x_7_6 + x_7_8
      + x_7_9 + x_7_10 + x_7_11 + x_7_12 + x_7_13 + x_7_14 + x_7_15 + x_7_16
      + x_7_17 + x_7_18 + x_7_19 + x_7_20  = 0
 c21: x_8_0 + x_8_1 + x_8_2 + x_8_3 + x_8_4 + x_8_5 + x_8_6 + x_8_7 + x_8_9
      + x_8_10 + x_8_11 + x_8_12 + x_8_13 + x_8_14 + x_8_15 + x_8_16 + x_8_17
      + x_8_18 + x_8_19 + x_8_20 - z_8  = 0
 c22: - z_9 + x_9_0 + x_9_1 + x_9_2 + x_9_3 + x_9_4 + x_9_5 + x_9_6 + x_9_7
      + x_9_8 + x_9_10 + x_9_11 + x_9_12 + x_9_13 + x_9_14 + x_9_15 + x_9_16
      + x_9_17 + x_9_18 + x_9_19 + x_9_20  = 0
 c23: x_10_0 + x_10_1 + x_10_2 + x_10_3 + x_10_4 + x_10_5 + x_10_6 + x_10_7
      + x_10_8 + x_10_9 + x_10_11 + x_10_12 + x_10_13 + x_10_14 + x_10_15
      + x_10_16 + x_10_17 + x_10_18 + x_10_19 + x_10_20 - z_10  = 0
 c24: x_11_0 + x_11_1 + x_11_2 + x_11_3 + x_11_4 + x_11_5 + x_11_6 + x_11_7
      + x_11_8 + x_11_9 + x_11_10 + x_11_12 + x_11_13 + x_11_14 + x_11_15
      + x_11_16 + x_11_17 + x_11_18 + x_11_19 + x_11_20 - z_11  = 0
 c25: x_12_0 + x_12_1 + x_12_2 + x_12_3 + x_12_4 + x_12_5 + x_12_6 + x_12_7
      + x_12_8 + x_12_9 + x_12_10 + x_12_11 + x_12_13 + x_12_14 + x_12_15
      + x_12_16 + x_12_17 + x_12_18 + x_12_19 + x_12_20 - z_12  = 0
 c26: - z_13 + x_13_0 + x_13_1 + x_13_2 + x_13_3 + x_13_4 + x_13_5 + x_13_6
      + x_13_7 + x_13_8 + x_13_9 + x_13_10 + x_13_11 + x_13_12 + x_13_14
      + x_13_15 + x_13_16 + x_13_17 + x_13_18 + x_13_19 + x_13_20  = 0
 c27: x_14_0 + x_14_1 + x_14_2 + x_14_3 + x_14_4 + x_14_5 + x_14_6 + x_14_7
      + x_14_8 + x_14_9 + x_14_10 + x_14_11 + x_14_12 + x_14_13 + x_14_15
      + x_14_16 + x_14_17 + x_14_18 + x_14_19 + x_14_20 - z_14  = 0
 c28: x_15_0 + x_15_1 + x_15_2 + x_15_3 + x_15_4 + x_15_5 + x_15_6 + x_15_7
      + x_15_8 + x_15_9 + x_15_10 + x_15_11 + x_15_12 + x_15_13 + x_15_14
      + x_15_16 + x_15_17 + x_15_18 + x_15_19 + x_15_20 - z_15  = 0
 c29: x_16_0 + x_16_1 + x_16_2 + x_16_3 + x_16_4 + x_16_5 + x_16_6 + x_16_7
      + x_16_8 + x_16_9 + x_16_10 + x_16_11 + x_16_12 + x_16_13 + x_16_14
      + x_16_15 + x_16_17 + x_16_18 + x_16_19 + x_16_20 - z_16  = 0
 c30: - z_17 + x_17_0 + x_17_1 + x_17_2 + x_17_3 + x_17_4 + x_17_5 + x_17_6
      + x_17_7 + x_17_8 + x_17_9 + x_17_10 + x_17_11 + x_17_12 + x_17_13
      + x_17_14 + x_17_15 + x_17_16 + x_17_18 + x_17_19 + x_17_20  = 0
 c31: x_18_0 + x_18_1 + x_18_2 + x_18_3 + x_18_4 + x_18_5 + x_18_6 + x_18_7
      + x_18_8 + x_18_9 + x_18_10 + x_18_11 + x_18_12 + x_18_13 + x_18_14
      + x_18_15 + x_18_16 + x_18_17 + x_18_19 + x_18_20 - z_18  = 0
 c32: - z_19 + x_19_0 + x_19_1 + x_19_2 + x_19_3 + x_19_4 + x_19_5 + x_19_6
      + x_19_7 + x_19_8 + x_19_9 + x_19_10 + x_19_11 + x_19_12 + x_19_13
      + x_19_14 + x_19_15 + x_19_16 + x_19_17 + x_19_18 + x_19_20  = 0
 c33: - z_20 + x_20_0 + x_20_1 + x_20_2 + x_20_3 + x_20_4 + x_20_5 + x_20_6
      + x_20_7 + x_20_8 + x_20_9 + x_20_10 + x_20_11 + x_20_12 + x_20_13
      + x_20_14 + x_20_15 + x_20_16 + x_20_17 + x_20_18 + x_20_19  = 0
 c34: y_1_0 + z_1  = 1
 c35: y_8_0 + z_8  = 1
 c36: y_10_0 + z_10  = 1
 c37: y_11_0 + z_11  = 1
 c38: y_12_0 + z_12  = 1
 c39: y_14_0 + z_14  = 1
 c40: y_15_0 + z_15  = 1
 c41: y_16_0 + z_16  = 1
 c42: y_18_0 + z_18  = 1
 c43: x_0_1 + x_0_2 + x_0_3 + x_0_4 + x_0_5 + x_0_6 + x_0_7 + x_0_8 + x_0_9
      + x_0_10 + x_0_11 + x_0_12 + x_0_13 + x_0_14 + x_0_15 + x_0_16 + x_0_17
      + x_0_18 + x_0_19 + x_0_20 <= 1
 c44: x_1_0 + x_1_2 + x_1_3 + x_1_4 + x_1_5 + x_1_6 + x_1_7 + x_1_8 + x_1_9
      + x_1_10 + x_1_11 + x_1_12 + x_1_13 + x_1_14 + x_1_15 + x_1_16 + x_1_17
      + x_1_18 + x_1_19 + x_1_20 - x_2_1 - x_3_1 - x_4_1 - x_5_1 - x_6_1
      - x_7_1 - x_8_1 - x_9_1 - x_10_1 - x_11_1 - x_12_1 - x_13_1 - x_14_1
      - x_15_1 - x_16_1 - x_17_1 - x_18_1 - x_19_1 - x_20_1 - x_0_1  = 0
 c45: - x_1_2 + x_2_0 + x_2_1 + x_2_3 + x_2_4 + x_2_5 + x_2_6 + x_2_7 + x_2_8
      + x_2_9 + x_2_10 + x_2_11 + x_2_12 + x_2_13 + x_2_14 + x_2_15 + x_2_16
      + x_2_17 + x_2_18 + x_2_19 + x_2_20 - x_3_2 - x_4_2 - x_5_2 - x_6_2
      - x_7_2 - x_8_2 - x_9_2 - x_10_2 - x_11_2 - x_12_2 - x_13_2 - x_14_2
      - x_15_2 - x_16_2 - x_17_2 - x_18_2 - x_19_2 - x_20_2 - x_0_2  = 0
 c46: - x_1_3 - x_2_3 + x_3_0 + x_3_1 + x_3_2 + x_3_4 + x_3_5 + x_3_6 + x_3_7
      + x_3_8 + x_3_9 + x_3_10 + x_3_11 + x_3_12 + x_3_13 + x_3_14 + x_3_15
      + x_3_16 + x_3_17 + x_3_18 + x_3_19 + x_3_20 - x_4_3 - x_5_3 - x_6_3
      - x_7_3 - x_8_3 - x_9_3 - x_10_3 - x_11_3 - x_12_3 - x_13_3 - x_14_3
      - x_15_3 - x_16_3 - x_17_3 - x_18_3 - x_19_3 - x_20_3 - x_0_3  = 0
 c47: - x_1_4 - x_2_4 - x_3_4 + x_4_0 + x_4_1 + x_4_2 + x_4_3 + x_4_5 + x_4_6
      + x_4_7 + x_4_8 + x_4_9 + x_4_10 + x_4_11 + x_4_12 + x_4_13 + x_4_14
      + x_4_15 + x_4_16 + x_4_17 + x_4_18 + x_4_19 + x_4_20 - x_5_4 - x_6_4
      - x_7_4 - x_8_4 - x_9_4 - x_10_4 - x_11_4 - x_12_4 - x_13_4 - x_14_4
      - x_15_4 - x_16_4 - x_17_4 - x_18_4 - x_19_4 - x_20_4 - x_0_4  = 0
 c48: - x_1_5 - x_2_5 - x_3_5 - x_4_5 + x_5_0 + x_5_1 + x_5_2 + x_5_3 + x_5_4
      + x_5_6 + x_5_7 + x_5_8 + x_5_9 + x_5_10 + x_5_11 + x_5_12 + x_5_13
      + x_5_14 + x_5_15 + x_5_16 + x_5_17 + x_5_18 + x_5_19 + x_5_20 - x_6_5
      - x_7_5 - x_8_5 - x_9_5 - x_10_5 - x_11_5 - x_12_5 - x_13_5 - x_14_5
      - x_15_5 - x_16_5 - x_17_5 - x_18_5 - x_19_5 - x_20_5 - x_0_5  = 0
 c49: - x_1_6 - x_2_6 - x_3_6 - x_4_6 - x_5_6 + x_6_0 + x_6_1 + x_6_2 + x_6_3
      + x_6_4 + x_6_5 + x_6_7 + x_6_8 + x_6_9 + x_6_10 + x_6_11 + x_6_12
      + x_6_13 + x_6_14 + x_6_15 + x_6_16 + x_6_17 + x_6_18 + x_6_19 + x_6_20
      - x_7_6 - x_8_6 - x_9_6 - x_10_6 - x_11_6 - x_12_6 - x_13_6 - x_14_6
      - x_15_6 - x_16_6 - x_17_6 - x_18_6 - x_19_6 - x_20_6 - x_0_6  = 0
 c50: - x_1_7 - x_2_7 - x_3_7 - x_4_7 - x_5_7 - x_6_7 + x_7_0 + x_7_1 + x_7_2
      + x_7_3 + x_7_4 + x_7_5 + x_7_6 + x_7_8 + x_7_9 + x_7_10 + x_7_11
      + x_7_12 + x_7_13 + x_7_14 + x_7_15 + x_7_16 + x_7_17 + x_7_18 + x_7_19
      + x_7_20 - x_8_7 - x_9_7 - x_10_7 - x_11_7 - x_12_7 - x_13_7 - x_14_7
      - x_15_7 - x_16_7 - x_17_7 - x_18_7 - x_19_7 - x_20_7 - x_0_7  = 0
 c51: - x_1_8 - x_2_8 - x_3_8 - x_4_8 - x_5_8 - x_6_8 - x_7_8 + x_8_0 + x_8_1
      + x_8_2 + x_8_3 + x_8_4 + x_8_5 + x_8_6 + x_8_7 + x_8_9 + x_8_10 + x_8_11
      + x_8_12 + x_8_13 + x_8_14 + x_8_15 + x_8_16 + x_8_17 + x_8_18 + x_8_19
      + x_8_20 - x_9_8 - x_10_8 - x_11_8 - x_12_8 - x_13_8 - x_14_8 - x_15_8
      - x_16_8 - x_17_8 - x_18_8 - x_19_8 - x_20_8 - x_0_8  = 0
 c52: - x_1_9 - x_2_9 - x_3_9 - x_4_9 - x_5_9 - x_6_9 - x_7_9 - x_8_9 + x_9_0
      + x_9_1 + x_9_2 + x_9_3 + x_9_4 + x_9_5 + x_9_6 + x_9_7 + x_9_8 + x_9_10
      + x_9_11 + x_9_12 + x_9_13 + x_9_14 + x_9_15 + x_9_16 + x_9_17 + x_9_18
      + x_9_19 + x_9_20 - x_10_9 - x_11_9 - x_12_9 - x_13_9 - x_14_9 - x_15_9
      - x_16_9 - x_17_9 - x_18_9 - x_19_9 - x_20_9 - x_0_9  = 0
 c53: - x_1_10 - x_2_10 - x_3_10 - x_4_10 - x_5_10 - x_6_10 - x_7_10 - x_8_10
      - x_9_10 + x_10_0 + x_10_1 + x_10_2 + x_10_3 + x_10_4 + x_10_5 + x_10_6
      + x_10_7 + x_10_8 + x_10_9 + x_10_11 + x_10_12 + x_10_13 + x_10_14
      + x_10_15 + x_10_16 + x_10_17 + x_10_18 + x_10_19 + x_10_20 - x_11_10
      - x_12_10 - x_13_10 - x_14_10 - x_15_10 - x_16_10 - x_17_10 - x_18_10
      - x_19_10 - x_20_10 - x_0_10  = 0
 c54: - x_1_11 - x_2_11 - x_3_11 - x_4_11 - x_5_11 - x_6_11 - x_7_11 - x_8_11
      - x_9_11 - x_10_11 + x_11_0 + x_11_1 + x_11_2 + x_11_3 + x_11_4 + x_11_5
      + x_11_6 + x_11_7 + x_11_8 + x_11_9 + x_11_10 + x_11_12 + x_11_13
      + x_11_14 + x_11_15 + x_11_16 + x_11_17 + x_11_18 + x_11_19 + x_11_20
      - x_12_11 - x_13_11 - x_14_11 - x_15_11 - x_16_11 - x_17_11 - x_18_11
      - x_19_11 - x_20_11 - x_0_11  = 0
 c55: - x_1_12 - x_2_12 - x_3_12 - x_4_12 - x_5_12 - x_6_12 - x_7_12 - x_8_12
      - x_9_12 - x_10_12 - x_11_12 + x_12_0 + x_12_1 + x_12_2 + x_12_3 + x_12_4
      + x_12_5 + x_12_6 + x_12_7 + x_12_8 + x_12_9 + x_12_10 + x_12_11
      + x_12_13 + x_12_14 + x_12_15 + x_12_16 + x_12_17 + x_12_18 + x_12_19
      + x_12_20 - x_13_12 - x_14_12 - x_15_12 - x_16_12 - x_17_12 - x_18_12
      - x_19_12 - x_20_12 - x_0_12  = 0
 c56: - x_1_13 - x_2_13 - x_3_13 - x_4_13 - x_5_13 - x_6_13 - x_7_13 - x_8_13
      - x_9_13 - x_10_13 - x_11_13 - x_12_13 + x_13_0 + x_13_1 + x_13_2
      + x_13_3 + x_13_4 + x_13_5 + x_13_6 + x_13_7 + x_13_8 + x_13_9 + x_13_10
      + x_13_11 + x_13_12 + x_13_14 + x_13_15 + x_13_16 + x_13_17 + x_13_18
      + x_13_19 + x_13_20 - x_14_13 - x_15_13 - x_16_13 - x_17_13 - x_18_13
      - x_19_13 - x_20_13 - x_0_13  = 0
 c57: - x_1_14 - x_2_14 - x_3_14 - x_4_14 - x_5_14 - x_6_14 - x_7_14 - x_8_14
      - x_9_14 - x_10_14 - x_11_14 - x_12_14 - x_13_14 + x_14_0 + x_14_1
      + x_14_2 + x_14_3 + x_14_4 + x_14_5 + x_14_6 + x_14_7 + x_14_8 + x_14_9
      + x_14_10 + x_14_11 + x_14_12 + x_14_13 + x_14_15 + x_14_16 + x_14_17
      + x_14_18 + x_14_19 + x_14_20 - x_15_14 - x_16_14 - x_17_14 - x_18_14
      - x_19_14 - x_20_14 - x_0_14  = 0
 c58: - x_1_15 - x_2_15 - x_3_15 - x_4_15 - x_5_15 - x_6_15 - x_7_15 - x_8_15
      - x_9_15 - x_10_15 - x_11_15 - x_12_15 - x_13_15 - x_14_15 + x_15_0
      + x_15_1 + x_15_2 + x_15_3 + x_15_4 + x_15_5 + x_15_6 + x_15_7 + x_15_8
      + x_15_9 + x_15_10 + x_15_11 + x_15_12 + x_15_13 + x_15_14 + x_15_16
      + x_15_17 + x_15_18 + x_15_19 + x_15_20 - x_16_15 - x_17_15 - x_18_15
      - x_19_15 - x_20_15 - x_0_15  = 0
 c59: - x_1_16 - x_2_16 - x_3_16 - x_4_16 - x_5_16 - x_6_16 - x_7_16 - x_8_16
      - x_9_16 - x_10_16 - x_11_16 - x_12_16 - x_13_16 - x_14_16 - x_15_16
      + x_16_0 + x_16_1 + x_16_2 + x_16_3 + x_16_4 + x_16_5 + x_16_6 + x_16_7
      + x_16_8 + x_16_9 + x_16_10 + x_16_11 + x_16_12 + x_16_13 + x_16_14
      + x_16_15 + x_16_17 + x_16_18 + x_16_19 + x_16_20 - x_17_16 - x_18_16
      - x_19_16 - x_20_16 - x_0_16  = 0
 c60: - x_1_17 - x_2_17 - x_3_17 - x_4_17 - x_5_17 - x_6_17 - x_7_17 - x_8_17
      - x_9_17 - x_10_17 - x_11_17 - x_12_17 - x_13_17 - x_14_17 - x_15_17
      - x_16_17 + x_17_0 + x_17_1 + x_17_2 + x_17_3 + x_17_4 + x_17_5 + x_17_6
      + x_17_7 + x_17_8 + x_17_9 + x_17_10 + x_17_11 + x_17_12 + x_17_13
      + x_17_14 + x_17_15 + x_17_16 + x_17_18 + x_17_19 + x_17_20 - x_18_17
      - x_19_17 - x_20_17 - x_0_17  = 0
 c61: - x_1_18 - x_2_18 - x_3_18 - x_4_18 - x_5_18 - x_6_18 - x_7_18 - x_8_18
      - x_9_18 - x_10_18 - x_11_18 - x_12_18 - x_13_18 - x_14_18 - x_15_18
      - x_16_18 - x_17_18 + x_18_0 + x_18_1 + x_18_2 + x_18_3 + x_18_4 + x_18_5
      + x_18_6 + x_18_7 + x_18_8 + x_18_9 + x_18_10 + x_18_11 + x_18_12
      + x_18_13 + x_18_14 + x_18_15 + x_18_16 + x_18_17 + x_18_19 + x_18_20
      - x_19_18 - x_20_18 - x_0_18  = 0
 c62: - x_1_19 - x_2_19 - x_3_19 - x_4_19 - x_5_19 - x_6_19 - x_7_19 - x_8_19
      - x_9_19 - x_10_19 - x_11_19 - x_12_19 - x_13_19 - x_14_19 - x_15_19
      - x_16_19 - x_17_19 - x_18_19 + x_19_0 + x_19_1 + x_19_2 + x_19_3
      + x_19_4 + x_19_5 + x_19_6 + x_19_7 + x_19_8 + x_19_9 + x_19_10 + x_19_11
      + x_19_12 + x_19_13 + x_19_14 + x_19_15 + x_19_16 + x_19_17 + x_19_18
      + x_19_20 - x_20_19 - x_0_19  = 0
 c63: - x_1_20 - x_2_20 - x_3_20 - x_4_20 - x_5_20 - x_6_20 - x_7_20 - x_8_20
      - x_9_20 - x_10_20 - x_11_20 - x_12_20 - x_13_20 - x_14_20 - x_15_20
      - x_16_20 - x_17_20 - x_18_20 - x_19_20 + x_20_0 + x_20_1 + x_20_2
      + x_20_3 + x_20_4 + x_20_5 + x_20_6 + x_20_7 + x_20_8 + x_20_9 + x_20_10
      + x_20_11 + x_20_12 + x_20_13 + x_20_14 + x_20_15 + x_20_16 + x_20_17
      + x_20_18 + x_20_19 - x_0_20  = 0
Bounds
 0 <= y_1_0 <= 1
 0 <= y_8_0 <= 1
 0 <= y_10_0 <= 1
 0 <= y_11_0 <= 1
 0 <= y_12_0 <= 1
 0 <= y_14_0 <= 1
 0 <= y_15_0 <= 1
 0 <= y_16_0 <= 1
 0 <= y_18_0 <= 1
 0 <= z_2 <= 1
 0 <= z_3 <= 1
 0 <= z_4 <= 1
 0 <= z_5 <= 1
 0 <= z_6 <= 1
 0 <= z_7 <= 1
 0 <= z_9 <= 1
 0 <= z_13 <= 1
 0 <= z_17 <= 1
 0 <= z_19 <= 1
 0 <= z_20 <= 1
 0 <= x_1_0 <= 1
 0 <= x_1_2 <= 1
 0 <= x_1_3 <= 1
 0 <= x_1_4 <= 1
 0 <= x_1_5 <= 1
 0 <= x_1_6 <= 1
 0 <= x_1_7 <= 1
 0 <= x_1_8 <= 1
 0 <= x_1_9 <= 1
 0 <= x_1_10 <= 1
 0 <= x_1_11 <= 1
 0 <= x_1_12 <= 1
 0 <= x_1_13 <= 1
 0 <= x_1_14 <= 1
 0 <= x_1_15 <= 1
 0 <= x_1_16 <= 1
 0 <= x_1_17 <= 1
 0 <= x_1_18 <= 1
 0 <= x_1_19 <= 1
 0 <= x_1_20 <= 1
 0 <= z_1 <= 1
 0 <= x_2_0 <= 1
 0 <= x_2_1 <= 1
 0 <= x_2_3 <= 1
 0 <= x_2_4 <= 1
 0 <= x_2_5 <= 1
 0 <= x_2_6 <= 1
 0 <= x_2_7 <= 1
 0 <= x_2_8 <= 1
 0 <= x_2_9 <= 1
 0 <= x_2_10 <= 1
 0 <= x_2_11 <= 1
 0 <= x_2_12 <= 1
 0 <= x_2_13 <= 1
 0 <= x_2_14 <= 1
 0 <= x_2_15 <= 1
 0 <= x_2_16 <= 1
 0 <= x_2_17 <= 1
 0 <= x_2_18 <= 1
 0 <= x_2_19 <= 1
 0 <= x_2_20 <= 1
 0 <= x_3_0 <= 1
 0 <= x_3_1 <= 1
 0 <= x_3_2 <= 1
 0 <= x_3_4 <= 1
 0 <= x_3_5 <= 1
 0 <= x_3_6 <= 1
 0 <= x_3_7 <= 1
 0 <= x_3_8 <= 1
 0 <= x_3_9 <= 1
 0 <= x_3_10 <= 1
 0 <= x_3_11 <= 1
 0 <= x_3_12 <= 1
 0 <= x_3_13 <= 1
 0 <= x_3_14 <= 1
 0 <= x_3_15 <= 1
 0 <= x_3_16 <= 1
 0 <= x_3_17 <= 1
 0 <= x_3_18 <= 1
 0 <= x_3_19 <= 1
 0 <= x_3_20 <= 1
 0 <= x_4_0 <= 1
 0 <= x_4_1 <= 1
 0 <= x_4_2 <= 1
 0 <= x_4_3 <= 1
 0 <= x_4_5 <= 1
 0 <= x_4_6 <= 1
 0 <= x_4_7 <= 1
 0 <= x_4_8 <= 1
 0 <= x_4_9 <= 1
 0 <= x_4_10 <= 1
 0 <= x_4_11 <= 1
 0 <= x_4_12 <= 1
 0 <= x_4_13 <= 1
 0 <= x_4_14 <= 1
 0 <= x_4_15 <= 1
 0 <= x_4_16 <= 1
 0 <= x_4_17 <= 1
 0 <= x_4_18 <= 1
 0 <= x_4_19 <= 1
 0 <= x_4_20 <= 1
 0 <= x_5_0 <= 1
 0 <= x_5_1 <= 1
 0 <= x_5_2 <= 1
 0 <= x_5_3 <= 1
 0 <= x_5_4 <= 1
 0 <= x_5_6 <= 1
 0 <= x_5_7 <= 1
 0 <= x_5_8 <= 1
 0 <= x_5_9 <= 1
 0 <= x_5_10 <= 1
 0 <= x_5_11 <= 1
 0 <= x_5_12 <= 1
 0 <= x_5_13 <= 1
 0 <= x_5_14 <= 1
 0 <= x_5_15 <= 1
 0 <= x_5_16 <= 1
 0 <= x_5_17 <= 1
 0 <= x_5_18 <= 1
 0 <= x_5_19 <= 1
 0 <= x_5_20 <= 1
 0 <= x_6_0 <= 1
 0 <= x_6_1 <= 1
 0 <= x_6_2 <= 1
 0 <= x_6_3 <= 1
 0 <= x_6_4 <= 1
 0 <= x_6_5 <= 1
 0 <= x_6_7 <= 1
 0 <= x_6_8 <= 1
 0 <= x_6_9 <= 1
 0 <= x_6_10 <= 1
 0 <= x_6_11 <= 1
 0 <= x_6_12 <= 1
 0 <= x_6_13 <= 1
 0 <= x_6_14 <= 1
 0 <= x_6_15 <= 1
 0 <= x_6_16 <= 1
 0 <= x_6_17 <= 1
 0 <= x_6_18 <= 1
 0 <= x_6_19 <= 1
 0 <= x_6_20 <= 1
 0 <= x_7_0 <= 1
 0 <= x_7_1 <= 1
 0 <= x_7_2 <= 1
 0 <= x_7_3 <= 1
 0 <= x_7_4 <= 1
 0 <= x_7_5 <= 1
 0 <= x_7_6 <= 1
 0 <= x_7_8 <= 1
 0 <= x_7_9 <= 1
 0 <= x_7_10 <= 1
 0 <= x_7_11 <= 1
 0 <= x_7_12 <= 1
 0 <= x_7_13 <= 1
 0 <= x_7_14 <= 1
 0 <= x_7_15 <= 1
 0 <= x_7_16 <= 1
 0 <= x_7_17 <= 1
 0 <= x_7_18 <= 1
 0 <= x_7_19 <= 1
 0 <= x_7_20 <= 1
 0 <= x_8_0 <= 1
 0 <= x_8_1 <= 1
 0 <= x_8_2 <= 1
 0 <= x_8_3 <= 1
 0 <= x_8_4 <= 1
 0 <= x_8_5 <= 1
 0 <= x_8_6 <= 1
 0 <= x_8_7 <= 1
 0 <= x_8_9 <= 1
 0 <= x_8_10 <= 1
 0 <= x_8_11 <= 1
 0 <= x_8_12 <= 1
 0 <= x_8_13 <= 1
 0 <= x_8_14 <= 1
 0 <= x_8_15 <= 1
 0 <= x_8_16 <= 1
 0 <= x_8_17 <= 1
 0 <= x_8_18 <= 1
 0 <= x_8_19 <= 1
 0 <= x_8_20 <= 1
 0 <= z_8 <= 1
 0 <= x_9_0 <= 1
 0 <= x_9_1 <= 1
 0 <= x_9_2 <= 1
 0 <= x_9_3 <= 1
 0 <= x_9_4 <= 1
 0 <= x_9_5 <= 1
 0 <= x_9_6 <= 1
 0 <= x_9_7 <= 1
 0 <= x_9_8 <= 1
 0 <= x_9_10 <= 1
 0 <= x_9_11 <= 1
 0 <= x_9_12 <= 1
 0 <= x_9_13 <= 1
 0 <= x_9_14 <= 1
 0 <= x_9_15 <= 1
 0 <= x_9_16 <= 1
 0 <= x_9_17 <= 1
 0 <= x_9_18 <= 1
 0 <= x_9_19 <= 1
 0 <= x_9_20 <= 1
 0 <= x_10_0 <= 1
 0 <= x_10_1 <= 1
 0 <= x_10_2 <= 1
 0 <= x_10_3 <= 1
 0 <= x_10_4 <= 1
 0 <= x_10_5 <= 1
 0 <= x_10_6 <= 1
 0 <= x_10_7 <= 1
 0 <= x_10_8 <= 1
 0 <= x_10_9 <= 1
 0 <= x_10_11 <= 1
 0 <= x_10_12 <= 1
 0 <= x_10_13 <= 1
 0 <= x_10_14 <= 1
 0 <= x_10_15 <= 1
 0 <= x_10_16 <= 1
 0 <= x_10_17 <= 1
 0 <= x_10_18 <= 1
 0 <= x_10_19 <= 1
 0 <= x_10_20 <= 1
 0 <= z_10 <= 1
 0 <= x_11_0 <= 1
 0 <= x_11_1 <= 1
 0 <= x_11_2 <= 1
 0 <= x_11_3 <= 1
 0 <= x_11_4 <= 1
 0 <= x_11_5 <= 1
 0 <= x_11_6 <= 1
 0 <= x_11_7 <= 1
 0 <= x_11_8 <= 1
 0 <= x_11_9 <= 1
 0 <= x_11_10 <= 1
 0 <= x_11_12 <= 1
 0 <= x_11_13 <= 1
 0 <= x_11_14 <= 1
 0 <= x_11_15 <= 1
 0 <= x_11_16 <= 1
 0 <= x_11_17 <= 1
 0 <= x_11_18 <= 1
 0 <= x_11_19 <= 1
 0 <= x_11_20 <= 1
 0 <= z_11 <= 1
 0 <= x_12_0 <= 1
 0 <= x_12_1 <= 1
 0 <= x_12_2 <= 1
 0 <= x_12_3 <= 1
 0 <= x_12_4 <= 1
 0 <= x_12_5 <= 1
 0 <= x_12_6 <= 1
 0 <= x_12_7 <= 1
 0 <= x_12_8 <= 1
 0 <= x_12_9 <= 1
 0 <= x_12_10 <= 1
 0 <= x_12_11 <= 1
 0 <= x_12_13 <= 1
 0 <= x_12_14 <= 1
 0 <= x_12_15 <= 1
 0 <= x_12_16 <= 1
 0 <= x_12_17 <= 1
 0 <= x_12_18 <= 1
 0 <= x_12_19 <= 1
 0 <= x_12_20 <= 1
 0 <= z_12 <= 1
 0 <= x_13_0 <= 1
 0 <= x_13_1 <= 1
 0 <= x_13_2 <= 1
 0 <= x_13_3 <= 1
 0 <= x_13_4 <= 1
 0 <= x_13_5 <= 1
 0 <= x_13_6 <= 1
 0 <= x_13_7 <= 1
 0 <= x_13_8 <= 1
 0 <= x_13_9 <= 1
 0 <= x_13_10 <= 1
 0 <= x_13_11 <= 1
 0 <= x_13_12 <= 1
 0 <= x_13_14 <= 1
 0 <= x_13_15 <= 1
 0 <= x_13_16 <= 1
 0 <= x_13_17 <= 1
 0 <= x_13_18 <= 1
 0 <= x_13_19 <= 1
 0 <= x_13_20 <= 1
 0 <= x_14_0 <= 1
 0 <= x_14_1 <= 1
 0 <= x_14_2 <= 1
 0 <= x_14_3 <= 1
 0 <= x_14_4 <= 1
 0 <= x_14_5 <= 1
 0 <= x_14_6 <= 1
 0 <= x_14_7 <= 1
 0 <= x_14_8 <= 1
 0 <= x_14_9 <= 1
 0 <= x_14_10 <= 1
 0 <= x_14_11 <= 1
 0 <= x_14_12 <= 1
 0 <= x_14_13 <= 1
 0 <= x_14_15 <= 1
 0 <= x_14_16 <= 1
 0 <= x_14_17 <= 1
 0 <= x_14_18 <= 1
 0 <= x_14_19 <= 1
 0 <= x_14_20 <= 1
 0 <= z_14 <= 1
 0 <= x_15_0 <= 1
 0 <= x_15_1 <= 1
 0 <= x_15_2 <= 1
 0 <= x_15_3 <= 1
 0 <= x_15_4 <= 1
 0 <= x_15_5 <= 1
 0 <= x_15_6 <= 1
 0 <= x_15_7 <= 1
 0 <= x_15_8 <= 1
 0 <= x_15_9 <= 1
 0 <= x_15_10 <= 1
 0 <= x_15_11 <= 1
 0 <= x_15_12 <= 1
 0 <= x_15_13 <= 1
 0 <= x_15_14 <= 1
 0 <= x_15_16 <= 1
 0 <= x_15_17 <= 1
 0 <= x_15_18 <= 1
 0 <= x_15_19 <= 1
 0 <= x_15_20 <= 1
 0 <= z_15 <= 1
 0 <= x_16_0 <= 1
 0 <= x_16_1 <= 1
 0 <= x_16_2 <= 1
 0 <= x_16_3 <= 1
 0 <= x_16_4 <= 1
 0 <= x_16_5 <= 1
 0 <= x_16_6 <= 1
 0 <= x_16_7 <= 1
 0 <= x_16_8 <= 1
 0 <= x_16_9 <= 1
 0 <= x_16_10 <= 1
 0 <= x_16_11 <= 1
 0 <= x_16_12 <= 1
 0 <= x_16_13 <= 1
 0 <= x_16_14 <= 1
 0 <= x_16_15 <= 1
 0 <= x_16_17 <= 1
 0 <= x_16_18 <= 1
 0 <= x_16_19 <= 1
 0 <= x_16_20 <= 1
 0 <= z_16 <= 1
 0 <= x_17_0 <= 1
 0 <= x_17_1 <= 1
 0 <= x_17_2 <= 1
 0 <= x_17_3 <= 1
 0 <= x_17_4 <= 1
 0 <= x_17_5 <= 1
 0 <= x_17_6 <= 1
 0 <= x_17_7 <= 1
 0 <= x_17_8 <= 1
 0 <= x_17_9 <= 1
 0 <= x_17_10 <= 1
 0 <= x_17_11 <= 1
 0 <= x_17_12 <= 1
 0 <= x_17_13 <= 1
 0 <= x_17_14 <= 1
 0 <= x_17_15 <= 1
 0 <= x_17_16 <= 1
 0 <= x_17_18 <= 1
 0 <= x_17_19 <= 1
 0 <= x_17_20 <= 1
 0 <= x_18_0 <= 1
 0 <= x_18_1 <= 1
 0 <= x_18_2 <= 1
 0 <= x_18_3 <= 1
 0 <= x_18_4 <= 1
 0 <= x_18_5 <= 1
 0 <= x_18_6 <= 1
 0 <= x_18_7 <= 1
 0 <= x_18_8 <= 1
 0 <= x_18_9 <= 1
 0 <= x_18_10 <= 1
 0 <= x_18_11 <= 1
 0 <= x_18_12 <= 1
 0 <= x_18_13 <= 1
 0 <= x_18_14 <= 1
 0 <= x_18_15 <= 1
 0 <= x_18_16 <= 1
 0 <= x_18_17 <= 1
 0 <= x_18_19 <= 1
 0 <= x_18_20 <= 1
 0 <= z_18 <= 1
 0 <= x_19_0 <= 1
 0 <= x_19_1 <= 1
 0 <= x_19_2 <= 1
 0 <= x_19_3 <= 1
 0 <= x_19_4 <= 1
 0 <= x_19_5 <= 1
 0 <= x_19_6 <= 1
 0 <= x_19_7 <= 1
 0 <= x_19_8 <= 1
 0 <= x_19_9 <= 1
 0 <= x_19_10 <= 1
 0 <= x_19_11 <= 1
 0 <= x_19_12 <= 1
 0 <= x_19_13 <= 1
 0 <= x_19_14 <= 1
 0 <= x_19_15 <= 1
 0 <= x_19_16 <= 1
 0 <= x_19_17 <= 1
 0 <= x_19_18 <= 1
 0 <= x_19_20 <= 1
 0 <= x_20_0 <= 1
 0 <= x_20_1 <= 1
 0 <= x_20_2 <= 1
 0 <= x_20_3 <= 1
 0 <= x_20_4 <= 1
 0 <= x_20_5 <= 1
 0 <= x_20_6 <= 1
 0 <= x_20_7 <= 1
 0 <= x_20_8 <= 1
 0 <= x_20_9 <= 1
 0 <= x_20_10 <= 1
 0 <= x_20_11 <= 1
 0 <= x_20_12 <= 1
 0 <= x_20_13 <= 1
 0 <= x_20_14 <= 1
 0 <= x_20_15 <= 1
 0 <= x_20_16 <= 1
 0 <= x_20_17 <= 1
 0 <= x_20_18 <= 1
 0 <= x_20_19 <= 1
 0 <= x_0_1 <= 1
 0 <= x_0_2 <= 1
 0 <= x_0_3 <= 1
 0 <= x_0_4 <= 1
 0 <= x_0_5 <= 1
 0 <= x_0_6 <= 1
 0 <= x_0_7 <= 1
 0 <= x_0_8 <= 1
 0 <= x_0_9 <= 1
 0 <= x_0_10 <= 1
 0 <= x_0_11 <= 1
 0 <= x_0_12 <= 1
 0 <= x_0_13 <= 1
 0 <= x_0_14 <= 1
 0 <= x_0_15 <= 1
 0 <= x_0_16 <= 1
 0 <= x_0_17 <= 1
 0 <= x_0_18 <= 1
 0 <= x_0_19 <= 1
 0 <= x_0_20 <= 1
Binaries
 y_1_0  y_8_0  y_10_0  y_11_0  y_12_0  y_14_0  y_15_0  y_16_0  y_18_0  z_2 
 z_3  z_4  z_5  z_6  z_7  z_9  z_13  z_17  z_19  z_20  x_1_0  x_1_2  x_1_3 
 x_1_4  x_1_5  x_1_6  x_1_7  x_1_8  x_1_9  x_1_10  x_1_11  x_1_12  x_1_13 
 x_1_14  x_1_15  x_1_16  x_1_17  x_1_18  x_1_19  x_1_20  z_1  x_2_0  x_2_1 
 x_2_3  x_2_4  x_2_5  x_2_6  x_2_7  x_2_8  x_2_9  x_2_10  x_2_11  x_2_12 
 x_2_13  x_2_14  x_2_15  x_2_16  x_2_17  x_2_18  x_2_19  x_2_20  x_3_0  x_3_1 
 x_3_2  x_3_4  x_3_5  x_3_6  x_3_7  x_3_8  x_3_9  x_3_10  x_3_11  x_3_12 
 x_3_13  x_3_14  x_3_15  x_3_16  x_3_17  x_3_18  x_3_19  x_3_20  x_4_0  x_4_1 
 x_4_2  x_4_3  x_4_5  x_4_6  x_4_7  x_4_8  x_4_9  x_4_10  x_4_11  x_4_12 
 x_4_13  x_4_14  x_4_15  x_4_16  x_4_17  x_4_18  x_4_19  x_4_20  x_5_0  x_5_1 
 x_5_2  x_5_3  x_5_4  x_5_6  x_5_7  x_5_8  x_5_9  x_5_10  x_5_11  x_5_12 
 x_5_13  x_5_14  x_5_15  x_5_16  x_5_17  x_5_18  x_5_19  x_5_20  x_6_0  x_6_1 
 x_6_2  x_6_3  x_6_4  x_6_5  x_6_7  x_6_8  x_6_9  x_6_10  x_6_11  x_6_12 
 x_6_13  x_6_14  x_6_15  x_6_16  x_6_17  x_6_18  x_6_19  x_6_20  x_7_0  x_7_1 
 x_7_2  x_7_3  x_7_4  x_7_5  x_7_6  x_7_8  x_7_9  x_7_10  x_7_11  x_7_12 
 x_7_13  x_7_14  x_7_15  x_7_16  x_7_17  x_7_18  x_7_19  x_7_20  x_8_0  x_8_1 
 x_8_2  x_8_3  x_8_4  x_8_5  x_8_6  x_8_7  x_8_9  x_8_10  x_8_11  x_8_12 
 x_8_13  x_8_14  x_8_15  x_8_16  x_8_17  x_8_18  x_8_19  x_8_20  z_8  x_9_0 
 x_9_1  x_9_2  x_9_3  x_9_4  x_9_5  x_9_6  x_9_7  x_9_8  x_9_10  x_9_11 
 x_9_12  x_9_13  x_9_14  x_9_15  x_9_16  x_9_17  x_9_18  x_9_19  x_9_20 
 x_10_0  x_10_1  x_10_2  x_10_3  x_10_4  x_10_5  x_10_6  x_10_7  x_10_8 
 x_10_9  x_10_11  x_10_12  x_10_13  x_10_14  x_10_15  x_10_16  x_10_17 
 x_10_18  x_10_19  x_10_20  z_10  x_11_0  x_11_1  x_11_2  x_11_3  x_11_4 
 x_11_5  x_11_6  x_11_7  x_11_8  x_11_9  x_11_10  x_11_12  x_11_13  x_11_14 
 x_11_15  x_11_16  x_11_17  x_11_18  x_11_19  x_11_20  z_11  x_12_0  x_12_1 
 x_12_2  x_12_3  x_12_4  x_12_5  x_12_6  x_12_7  x_12_8  x_12_9  x_12_10 
 x_12_11  x_12_13  x_12_14  x_12_15  x_12_16  x_12_17  x_12_18  x_12_19 
 x_12_20  z_12  x_13_0  x_13_1  x_13_2  x_13_3  x_13_4  x_13_5  x_13_6  x_13_7 
 x_13_8  x_13_9  x_13_10  x_13_11  x_13_12  x_13_14  x_13_15  x_13_16  x_13_17 
 x_13_18  x_13_19  x_13_20  x_14_0  x_14_1  x_14_2  x_14_3  x_14_4  x_14_5 
 x_14_6  x_14_7  x_14_8  x_14_9  x_14_10  x_14_11  x_14_12  x_14_13  x_14_15 
 x_14_16  x_14_17  x_14_18  x_14_19  x_14_20  z_14  x_15_0  x_15_1  x_15_2 
 x_15_3  x_15_4  x_15_5  x_15_6  x_15_7  x_15_8  x_15_9  x_15_10  x_15_11 
 x_15_12  x_15_13  x_15_14  x_15_16  x_15_17  x_15_18  x_15_19  x_15_20  z_15 
 x_16_0  x_16_1  x_16_2  x_16_3  x_16_4  x_16_5  x_16_6  x_16_7  x_16_8 
 x_16_9  x_16_10  x_16_11  x_16_12  x_16_13  x_16_14  x_16_15  x_16_17 
 x_16_18  x_16_19  x_16_20  z_16  x_17_0  x_17_1  x_17_2  x_17_3  x_17_4 
 x_17_5  x_17_6  x_17_7  x_17_8  x_17_9  x_17_10  x_17_11  x_17_12  x_17_13 
 x_17_14  x_17_15  x_17_16  x_17_18  x_17_19  x_17_20  x_18_0  x_18_1  x_18_2 
 x_18_3  x_18_4  x_18_5  x_18_6  x_18_7  x_18_8  x_18_9  x_18_10  x_18_11 
 x_18_12  x_18_13  x_18_14  x_18_15  x_18_16  x_18_17  x_18_19  x_18_20  z_18 
 x_19_0  x_19_1  x_19_2  x_19_3  x_19_4  x_19_5  x_19_6  x_19_7  x_19_8 
 x_19_9  x_19_10  x_19_11  x_19_12  x_19_13  x_19_14  x_19_15  x_19_16 
 x_19_17  x_19_18  x_19_20  x_20_0  x_20_1  x_20_2  x_20_3  x_20_4  x_20_5 
 x_20_6  x_20_7  x_20_8  x_20_9  x_20_10  x_20_11  x_20_12  x_20_13  x_20_14 
 x_20_15  x_20_16  x_20_17  x_20_18  x_20_19  x_0_1  x_0_2  x_0_3  x_0_4 
 x_0_5  x_0_6  x_0_7  x_0_8  x_0_9  x_0_10  x_0_11  x_0_12  x_0_13  x_0_14 
 x_0_15  x_0_16  x_0_17  x_0_18  x_0_19  x_0_20 
End
